
  22    4
  10   10   10   10

   0   0   0   0   0   4 2 3 4 6 
   5  10  10  10  10   3 11 7 5 
   7  10  10  10  10   4 14 11 10 7 
   6  10  10  10  10   4 14 11 10 9 
   4  10  10  10  10   3 14 10 8 
   8  10  10  10  10   4 15 14 13 11 
   2  10  10  10  10   2 13 9 
   4  10  10  10  10   2 13 9 
   8  10  10  10  10   2 15 12 
   9  10  10  10  10   2 13 12 
   4  10  10  10  10   1 12 
   7  10  10  10  10   3 21 17 16 
   2  10  10  10  10   3 21 17 16 
   8  10  10  10  10   4 21 20 19 18 
   3  10  10  10  10   3 21 20 19 
   4  10  10  10  10   2 20 18 
   2  10  10  10  10   2 19 18 
   5  10  10  10  10   1 22
   1  10  10  10  10   1 22
   9  10  10  10  10   1 22
   6  10  10  10  10   1 22
   0   0   0   0   0   0 
